sat
(
  (define-fun VM4Type () Int
    1)
  (define-fun ProcProv3 () Int
    1800)
  (define-fun C1_VM3 () Int
    0)
  (define-fun C1_VM5 () Int
    0)
  (define-fun MemProv4 () Int
    1350)
  (define-fun C2_VM4 () Int
    1)
  (define-fun C1_VM6 () Int
    0)
  (define-fun C5_VM1 () Int
    0)
  (define-fun C5_VM2 () Int
    0)
  (define-fun C3_VM2 () Int
    0)
  (define-fun MemProv6 () Int
    13951)
  (define-fun C3_VM4 () Int
    0)
  (define-fun ProcProv5 () Int
    900)
  (define-fun C5_VM3 () Int
    1)
  (define-fun VM5Type () Int
    1)
  (define-fun C3_VM5 () Int
    0)
  (define-fun PriceProv1 () Int
    1680)
  (define-fun PriceProv6 () Int
    0)
  (define-fun StorageProv3 () Int
    69000)
  (define-fun C4_VM3 () Int
    0)
  (define-fun C5_VM6 () Int
    0)
  (define-fun StorageProv6 () Int
    807001)
  (define-fun C2_VM3 () Int
    0)
  (define-fun VM1Type () Int
    24)
  (define-fun PriceProv2 () Int
    240)
  (define-fun PriceProv5 () Int
    120)
  (define-fun ProcProv6 () Int
    1799)
  (define-fun C1_VM2 () Int
    1)
  (define-fun StorageProv4 () Int
    42000)
  (define-fun VM2Type () Int
    7)
  (define-fun PriceProv3 () Int
    240)
  (define-fun C2_VM6 () Int
    0)
  (define-fun C3_VM3 () Int
    1)
  (define-fun C2_VM2 () Int
    0)
  (define-fun MemProv5 () Int
    1350)
  (define-fun C3_VM6 () Int
    0)
  (define-fun C2_VM1 () Int
    0)
  (define-fun C5_VM5 () Int
    1)
  (define-fun C3_VM1 () Int
    0)
  (define-fun StorageProv5 () Int
    42000)
  (define-fun StorageProv2 () Int
    69000)
  (define-fun C4_VM1 () Int
    1)
  (define-fun C4_VM4 () Int
    0)
  (define-fun C4_VM6 () Int
    0)
  (define-fun VM6Type () Int
    0)
  (define-fun StorageProv1 () Int
    87000)
  (define-fun C5_VM4 () Int
    1)
  (define-fun ProcProv1 () Int
    3600)
  (define-fun C2_VM5 () Int
    1)
  (define-fun C4_VM5 () Int
    0)
  (define-fun MemProv1 () Int
    28350)
  (define-fun ProcProv2 () Int
    1800)
  (define-fun C1_VM4 () Int
    0)
  (define-fun ProcProv4 () Int
    900)
  (define-fun PriceProv4 () Int
    120)
  (define-fun MemProv2 () Int
    3150)
  (define-fun VM3Type () Int
    7)
  (define-fun MemProv3 () Int
    3150)
  (define-fun C4_VM2 () Int
    0)
  (define-fun C1_VM1 () Int
    0)
)
(objectives
 ( 13)
 ((+ 0 PriceProv1 PriceProv2 PriceProv3 PriceProv4 PriceProv5 PriceProv6) 2400)
)
(:added-eqs                   42151
 :arith-eq-adapter            6096
 :arith-bound-propagations-lp 105
 :arith-conflicts             13
 :arith-diseq                 30582
 :arith-fixed-eqs             825
 :arith-lower                 44596
 :arith-make-feasible         5917
 :arith-max-columns           120
 :arith-max-rows              20
 :arith-upper                 27612
 :binary-propagations         202544
 :conflicts                   1129
 :decisions                   26694
 :del-clause                  6810
 :final-checks                15
 :max-memory                  41.30
 :maxsat-cores                2
 :memory                      41.30
 :minimized-lits              6918
 :mk-bool-var                 12806
 :mk-clause                   8055
 :mk-clause-binary            3063
 :num-allocs                  11379618
 :num-checks                  23
 :pb-conflicts                700
 :pb-predicates               318
 :pb-propagations             1055
 :pb-resolves                 699
 :propagations                260253
 :restarts                    7
 :rlimit-count                1978920
 :solve-eqs-elim-vars         1
 :solve-eqs-steps             10
 :time                        0.10
 :total-time                  0.10)
